30
Fukui flat z=0 from /home/prokop/SIMULATIONS/Fukui_AFM/pyscf_fukui_cluster/azaindol_dimer_PBE_def2-SVP/rho_N.cube
C      1.059600     0.078100     0.000000
N     -0.065000     0.838700     0.000000
C     -1.217100     0.145500     0.000000
C     -1.286300    -1.259800     0.000000
C     -0.126600    -2.026200     0.000000
C      1.099200    -1.342300     0.000000
N      2.348300     0.544300     0.000000
C      3.206800    -0.530600     0.000000
C      2.485600    -1.704200     0.000000
C      1.731300     4.321400     0.000000
N      2.858400     3.564400     0.000000
C      4.008300     4.261900     0.000000
C      4.072801     5.667501     0.000000
C      2.910400     6.429700     0.000000
C      1.686800     5.741700     0.000000
N      0.444000     3.851000     0.000000
C     -0.418100     4.922800     0.000000
C      0.299200     6.098901     0.000000
H     -2.146000     0.727700     0.000000
H     -2.261200    -1.739700     0.000000
H     -0.174600    -3.110500     0.000000
H      2.628800     1.531300     0.000000
H      4.280801    -0.382000     0.000000
H      2.902200    -2.699600     0.000000
H      4.939400     3.683400     0.000000
H      5.046200     6.151000     0.000000
H      2.954600     7.514101     0.000000
H      0.166800     2.862800     0.000000
H     -1.491600     4.770101     0.000000
H     -0.120600     7.093000     0.000000
