30
Fukui flat z=0 from /home/prokop/SIMULATIONS/Fukui_AFM/pyscf_fukui_cluster/azaindol_isodimer_PBE_def2-SVP/rho_N.cube
C      1.162945     0.132093     0.000000
N      0.004004     0.841931     0.000000
C     -1.191952     0.205414     0.000000
C     -1.254753    -1.188870     0.000000
C     -0.084580    -1.966400     0.000000
C      1.148603    -1.315473     0.000000
N      2.418008     0.634039     0.000000
C      3.228911    -0.483066     0.000000
C      2.522090    -1.680237     0.000000
C      1.625832     4.268452     0.000000
N      2.785345     3.559413     0.000000
C      3.980868     4.197055     0.000000
C      4.042482     5.591378     0.000000
C      2.871625     6.367952     0.000000
C      1.638895     5.716005     0.000000
N      0.371085     3.765621     0.000000
C     -0.440827     4.881928     0.000000
C      0.265032     6.079629     0.000000
H      0.039961     1.886995     0.000000
H     -2.080303     0.834134     0.000000
H     -2.229558    -1.664093     0.000000
H     -0.157780    -3.051870     0.000000
H      4.312315    -0.371753     0.000000
H      2.933904    -2.680891     0.000000
H      2.750173     2.514357     0.000000
H      4.869857     3.569181     0.000000
H      5.017000     6.067432     0.000000
H      2.944003     7.453445     0.000000
H     -1.524144     4.769505     0.000000
H     -0.147611     7.079887     0.000000
