32
Fukui flat z=0 from /home/prokop/SIMULATIONS/Fukui_AFM/pyscf_fukui_cluster/benzoicamid_dimer_PBE_def2-SVP/rho_N.cube
C      1.208781     0.191230     0.000000
C     -0.000195     0.905918     0.000000
C     -1.206195     0.184584     0.000000
C     -1.199141    -1.209943     0.000000
C      0.010348    -1.905927     0.000000
C      1.215787    -1.201454     0.000000
C      0.073072     2.413465     0.000000
O      1.180313     2.988150     0.000000
N     -1.092076     3.132553     0.000000
C     -1.043425     8.825718     0.000000
C      0.165913     8.111660     0.000000
C      1.371574     8.833584     0.000000
C      1.363733    10.228142     0.000000
C      0.153855    10.923496     0.000000
C     -1.051234    10.218406     0.000000
C      0.093249     6.604100     0.000000
O     -1.013741     6.028979     0.000000
N      1.258658     5.885304     0.000000
H      2.140737     0.752975     0.000000
H     -2.162565     0.706203     0.000000
H     -2.141073    -1.754797     0.000000
H      0.012595    -2.993874     0.000000
H      2.160614    -1.741226     0.000000
H     -1.061073     4.163586     0.000000
H     -1.995300     2.682310     0.000000
H     -1.975014     8.263397     0.000000
H      2.328254     8.312483     0.000000
H      2.305396    10.773522     0.000000
H      0.150958    12.011469     0.000000
H     -1.996375    10.757654     0.000000
H      1.227885     4.854250     0.000000
H      2.161693     6.335801     0.000000
