30
Fukui flat z=0 from /home/prokop/SIMULATIONS/Fukui_AFM/pyscf_fukui_cluster/benzoicacid_dimer_PBE_def2-SVP/rho_N.cube
C      1.224127     0.335352     0.000000
C      0.012362     1.045679     0.000000
C     -1.198179     0.332367     0.000000
C     -1.194394    -1.060949     0.000000
C      0.015803    -1.757091     0.000000
C      1.224778    -1.057694     0.000000
C      0.028770     2.538031     0.000000
O      1.086959     3.196563     0.000000
O     -1.164450     3.131567     0.000000
C     -1.058743     8.681725     0.000000
C      0.153316     7.971884     0.000000
C      1.363569     8.685677     0.000000
C      1.359192    10.079006     0.000000
C      0.148705    10.774659     0.000000
C     -1.059985    10.074771     0.000000
C      0.137304     6.479533     0.000000
O     -0.920797     5.820885     0.000000
O      1.330607     5.886124     0.000000
H      2.159344     0.891552     0.000000
H     -2.138738     0.878620     0.000000
H     -2.136133    -1.605920     0.000000
H      0.016242    -2.845056     0.000000
H      2.167129    -1.601315     0.000000
H     -1.067357     4.129959     0.000000
H     -1.993717     8.125118     0.000000
H      2.304361     8.139812     0.000000
H      2.300699    10.624378     0.000000
H      0.147812    11.862629     0.000000
H     -2.002568    10.617997     0.000000
H      1.233619     4.887727     0.000000
