42
diazaphenalene_dimer from /home/prokop/git/dftbplus/data/mol/diazaphenalene_dimer.mol2
C     -2.496700     0.389400     0.408600
C     -1.858800     1.622400     0.233700
N     -0.525500     1.675600    -0.035100
C      0.227400     0.547600    -0.142200
C     -0.371000    -0.710300     0.026100
C     -1.750000    -0.791800     0.305100
C      0.405800    -1.876900    -0.083900
C      1.853800    -1.761300    -0.377300
C      2.410600    -0.548300    -0.535500
N      1.618600     0.632400    -0.423400
H     -3.558500     0.360400     0.621800
H     -2.426400     2.540000     0.312100
H     -2.035000    -4.181900     0.493300
C     -2.345300    -2.050900     0.473000
C     -0.201600    -3.128500     0.085900
H      0.382200    -4.036900     0.004100
H      2.468800    -2.652000    -0.464800
H     -3.403700    -2.136700     0.688100
C     -1.571500    -3.212600     0.363100
H      3.471600    -0.465800    -0.750000
H      2.062900     1.554000    -0.547100
C      4.805800     4.897700    -0.905400
C      4.165400     3.659000    -0.789100
N      2.831500     3.595800    -0.525500
C      2.080400     4.719000    -0.367000
C      2.681500     5.982300    -0.475000
C      4.061100     6.074100    -0.747500
C      1.906700     7.143900    -0.311100
C      0.458300     7.017400    -0.024500
C     -0.101100     5.799400     0.075600
N      0.688800     4.623700    -0.091800
H      5.867900     4.934600    -1.115900
H      4.731600     2.745100    -0.909000
H      4.352700     9.468800    -0.775300
C      4.659100     7.338600    -0.854700
C      2.516700     8.400900    -0.421000
H      1.934400     9.305500    -0.297800
H     -0.154900     7.904100     0.105800
H      5.718000     7.432300    -1.063500
C      3.887200     8.495300    -0.691600
H     -1.162200     5.708900     0.285900
H      0.242800     3.698200    -0.010800
