42
dzp midpoint scaffold, inversion-symmetrized
C     -2.461528     0.470362     0.429828
C     -1.798491     1.667437     0.294171
N     -0.460371     1.747006     0.039415
C      0.264010     0.604059    -0.095666
C     -0.348618    -0.677800     0.031004
C     -1.742885    -0.764193     0.304816
C      0.443732    -1.851301    -0.113731
C      1.837966    -1.666778    -0.394237
C      2.354270    -0.396467    -0.503302
N      1.593096     0.726459    -0.354749
H     -3.538103     0.461386     0.634392
H     -2.331907     2.627767     0.387967
H     -2.014987    -4.174229     0.408676
C     -2.329258    -2.039794     0.437668
C     -0.176912    -3.110072     0.025565
H      0.414816    -4.028904    -0.078925
H      2.492032    -2.537028    -0.520936
H     -3.402176    -2.130528     0.652110
C     -1.544503    -3.186572     0.299422
H      3.423347    -0.235912    -0.719799
H      2.179770     2.128202    -0.416806
C      4.772511     4.802108    -0.870204
C      4.109475     3.605033    -0.734548
N      2.771354     3.525463    -0.479792
C      2.046974     4.668411    -0.344711
C      2.659602     5.950269    -0.471380
C      4.053869     6.036662    -0.745193
C      1.867252     7.123771    -0.326646
C      0.473017     6.939247    -0.046140
C     -0.043286     5.668937     0.062925
N      0.717888     4.546010    -0.085628
H      5.849087     4.811084    -1.074768
H      4.642891     2.644702    -0.828343
H      4.325971     9.446699    -0.849052
C      4.640242     7.312263    -0.878045
C      2.487896     8.382542    -0.465941
H      1.896168     9.301373    -0.361452
H     -0.181048     7.809498     0.080560
H      5.713160     7.402998    -1.092487
C      3.855487     8.459042    -0.739799
H     -1.112363     5.508381     0.279423
H      0.131213     3.144267    -0.023570
