42
dzp relaxed, inversion-symmetrized scaffold
C     -2.449976     0.473093     0.427979
C     -1.773357     1.670032     0.287797
N     -0.440341     1.765625     0.032840
C      0.242588     0.616163    -0.094076
C     -0.350032    -0.675247     0.029681
C     -1.742500    -0.759108     0.304526
C      0.441752    -1.851100    -0.114378
C      1.844498    -1.674576    -0.397014
C      2.368920    -0.415179    -0.508588
N      1.591702     0.700859    -0.357559
H     -3.526943     0.469221     0.634649
H     -2.323333     2.625673     0.383934
H     -2.015061    -4.171529     0.408926
C     -2.330589    -2.041136     0.438353
C     -0.174741    -3.104181     0.024943
H      0.417182    -4.022711    -0.079193
H      2.494320    -2.547328    -0.521614
H     -3.403601    -2.130591     0.653640
C     -1.548681    -3.181934     0.300320
H      3.431712    -0.238768    -0.724195
H      2.024936     1.649366    -0.431591
C      4.760899     4.798931    -0.868626
C      4.084280     3.601993    -0.728445
N      2.751265     3.506400    -0.473488
C      2.068335     4.655862    -0.346571
C      2.660956     5.947272    -0.470328
C      4.053424     6.031132    -0.745174
C      1.869171     7.123124    -0.326269
C      0.466426     6.946601    -0.043633
C     -0.057997     5.687204     0.067940
N      0.719221     4.571165    -0.083089
H      5.837867     4.802803    -1.075297
H      4.634256     2.646351    -0.824582
H      4.325984     9.443553    -0.849573
C      4.641512     7.313161    -0.879000
C      2.485665     8.376206    -0.465591
H      1.893742     9.294735    -0.361455
H     -0.183396     7.819353     0.080967
H      5.714525     7.402615    -1.094288
C      3.859604     8.453959    -0.740968
H     -1.120789     5.510792     0.283548
H      0.285988     3.622659    -0.009056
