42
dzp relaxed (gpu_relax, f_tol=1e-3)
C     -2.451941     0.479220     0.398416
C     -1.776275     1.673507     0.232285
N     -0.443235     1.764085    -0.023354
C      0.241754     0.613503    -0.125681
C     -0.350047    -0.675599     0.025995
C     -1.742474    -0.754605     0.303047
C      0.442737    -1.853866    -0.091820
C      1.845011    -1.681353    -0.379654
C      2.368575    -0.423907    -0.518720
N      1.591027     0.695291    -0.390720
H     -3.529118     0.478877     0.604149
H     -2.326423     2.631216     0.306482
H     -2.011700    -4.164597     0.487583
C     -2.329219    -2.034046     0.466896
C     -0.172473    -3.104397     0.076874
H      0.419999    -4.024987    -0.006082
H      2.495471    -2.556257    -0.485823
H     -3.402024    -2.119195     0.685103
C     -1.546177    -3.177196     0.355189
H      3.431170    -0.252414    -0.739518
H      2.023820     1.643359    -0.481268
C      4.758934     4.805058    -0.898189
C      4.081362     3.605468    -0.783957
N      2.748371     3.504860    -0.529682
C      2.067501     4.653202    -0.378176
C      2.660941     5.946920    -0.474014
C      4.053450     6.035635    -0.746653
C      1.870156     7.120358    -0.303711
C      0.466939     6.939824    -0.026273
C     -0.058342     5.678476     0.057808
N      0.718546     4.565597    -0.116250
H      5.835692     4.812459    -1.105797
H      4.631166     2.651894    -0.902034
H      4.329345     9.450485    -0.770916
C      4.642882     7.320251    -0.850457
C      2.487933     8.375990    -0.413660
H      1.896559     9.292459    -0.288344
H     -0.182245     7.810424     0.116758
H      5.716102     7.414011    -1.062825
C      3.862108     8.458697    -0.686099
H     -1.121331     5.497146     0.268225
H      0.284872     3.616652    -0.058733
