42
dzpT relaxed (gpu_relax, f_tol=1e-3)
C     -2.475237     0.473632     0.401686
C     -1.825909     1.668435     0.248813
N     -0.482249     1.726984    -0.003744
C      0.284809     0.589039    -0.125603
C     -0.347285    -0.680900     0.029457
C     -1.743490    -0.764980     0.303428
C      0.446598    -1.854411    -0.090575
C      1.831826    -1.665928    -0.374317
C      2.339036    -0.386493    -0.508406
N      1.593688     0.746239    -0.384291
H     -3.552111     0.463029     0.600726
H     -2.342630     2.635436     0.319933
H     -2.011446    -4.170265     0.486673
C     -2.326778    -2.031678     0.464545
C     -0.176921    -3.116339     0.077748
H      0.415235    -4.037416    -0.006253
H      2.490647    -2.535827    -0.485571
H     -3.399416    -2.119601     0.680712
C     -1.537887    -3.186718     0.352985
H      3.414059    -0.246340    -0.730642
H      2.333588     2.603647    -0.462916
C      4.781967     4.811287    -0.901774
C      4.132386     3.611666    -0.792383
N      2.789595     3.543121    -0.535829
C      2.024991     4.678045    -0.371200
C      2.658169     5.952720    -0.475302
C      4.054095     6.046491    -0.746891
C      1.866219     7.121509    -0.304512
C      0.480000     6.924945    -0.031502
C     -0.029160     5.641931     0.047519
N      0.715752     4.515034    -0.120520
H      5.857460     4.828843    -1.107648
H      4.649377     2.648626    -0.904171
H      4.329424     9.456510    -0.770282
C      4.640123     7.318138    -0.849529
C      2.492289     8.388501    -0.414730
H      1.901379     9.305692    -0.289045
H     -0.177796     7.790544     0.114840
H      5.713129     7.414246    -1.060555
C      3.853808     8.468618    -0.684168
H     -1.104860     5.492685     0.260060
H     -0.024578     2.662486    -0.098978
