20
H-bond complex: 56 orbitals
C      1.059600     0.078100     0.000000
N     -0.065000     0.838700     0.000000
C     -1.217100     0.145500     0.000000
C     -1.286300    -1.259800     0.000000
C     -0.126600    -2.026200     0.000000
C      1.099200    -1.342300     0.000000
N      2.348300     0.544300     0.000000
C      3.206800    -0.530600     0.000000
C      2.485600    -1.704200     0.000000
H      2.902200    -2.699600     0.000000
H     -2.261200    -1.739700     0.000000
H      4.280800    -0.382000     0.000000
H     -0.174600    -3.110500     0.000000
H     -2.146000     0.727700     0.000000
H      2.628800     1.531300     0.000000
H      2.638772     5.245656     0.000000
C      2.279252     4.204997     0.000000
O      3.148202     3.358927     0.000000
O      1.014217     3.892172     0.000000
H      0.960422     2.913959     0.000000
