50
Fukui flat z=0 from /home/prokop/SIMULATIONS/Fukui_AFM/pyscf_fukui_cluster/phtalo_2-dftb-relax_PBE_def2-SVP/rho_N.cube
C      1.139916    -5.473445     0.000000
C     -0.235542    -5.481640     0.000000
C     -0.685338    -4.119376     0.000000
C      1.574347    -4.106098     0.000000
N      0.439932    -3.330939     0.000000
C      2.900004    -3.635232     0.000000
C      3.332336    -2.299126     0.000000
N      2.521826    -1.193455     0.000000
C      3.326413    -0.083386     0.000000
C      4.744026    -1.891403     0.000000
C      4.739926    -0.483476     0.000000
C      2.887095     1.250437     0.000000
C      1.557605     1.710092     0.000000
N      0.432417     0.921629     0.000000
C     -0.267802     3.064009     0.000000
C      1.107708     3.072371     0.000000
C     -2.459884    -0.110726     0.000000
N     -1.649558    -1.216489     0.000000
C     -2.454367    -2.326408     0.000000
C     -3.867843    -1.926319     0.000000
C     -3.871607    -0.518377     0.000000
C     -2.014964    -3.660100     0.000000
C     -2.027555     1.225390     0.000000
C     -0.702056     1.696607     0.000000
C      5.949185    -2.603574     0.000000
C      5.940441     0.236199     0.000000
C     -5.068409    -2.646001     0.000000
C     -5.076602     0.193859     0.000000
C     -6.268275    -1.931048     0.000000
C      7.140311    -0.478715     0.000000
C      7.144756    -1.881291     0.000000
C     -6.272150    -0.528417     0.000000
H      3.672244    -4.402133     0.000000
H      1.797010    -6.334182     0.000000
H      3.654606     2.022028     0.000000
H      0.439782    -0.096263     0.000000
H     -2.782345    -4.431854     0.000000
H     -0.882294    -6.350257     0.000000
H     -0.925161     3.924526     0.000000
H      0.432552    -2.312974     0.000000
H      1.754189     3.941171     0.000000
H      5.946575     1.325536     0.000000
H      8.087277     0.058073     0.000000
H      5.962081    -3.692823     0.000000
H      8.095465    -2.411687     0.000000
H     -5.089617     1.283157     0.000000
H     -7.222387     0.002577     0.000000
H     -5.074214    -3.735361     0.000000
H     -7.215630    -2.467365     0.000000
H     -2.799878     1.992161     0.000000
