50
Fukui flat z=0 from /home/prokop/SIMULATIONS/Fukui_AFM/pyscf_fukui_cluster/phtalo_1-dftb-relax_PBE_def2-SVP/rho_N.cube
C      1.122918    -5.489414     0.000000
C     -0.235038    -5.493131     0.000000
C     -0.653274    -4.094012     0.000000
C      1.533690    -4.088042     0.000000
N      0.438014    -3.265949     0.000000
C      2.882301    -3.676902     0.000000
C      3.369010    -2.365200     0.000000
N      2.602179    -1.224198     0.000000
C      3.365615    -0.080786     0.000000
C      4.753040    -1.929281     0.000000
C      4.751214    -0.512539     0.000000
C      2.872937     1.228791     0.000000
C      1.522013     1.633054     0.000000
N      0.430429     0.805432     0.000000
C     -0.254286     3.029140     0.000000
C      1.103728     3.032272     0.000000
C     -2.499822    -0.095360     0.000000
N     -1.732721    -1.236292     0.000000
C     -2.495884    -2.379903     0.000000
C     -3.881379    -1.948363     0.000000
C     -3.883727    -0.531541     0.000000
C     -2.003936    -3.689773     0.000000
C     -2.013695     1.216623     0.000000
C     -0.665170     1.627825     0.000000
C      5.964691    -2.641928     0.000000
C      5.961775     0.202287     0.000000
C     -5.091430    -2.663985     0.000000
C     -5.095747     0.180630     0.000000
C     -6.283470    -1.947462     0.000000
C      7.153621    -0.514744     0.000000
C      7.155245    -1.922977     0.000000
C     -6.285653    -0.539300     0.000000
H      3.636187    -4.461963     0.000000
H      1.788461    -6.346032     0.000000
H      3.622929     2.017629     0.000000
H      1.581376    -1.225452     0.000000
H     -2.754177    -4.478406     0.000000
H     -0.895429    -6.353689     0.000000
H     -0.919336     3.886267     0.000000
H     -0.711952    -1.234871     0.000000
H      1.764666     3.892364     0.000000
H      5.967749     1.290827     0.000000
H      8.102920     0.017473     0.000000
H      5.971465    -3.730369     0.000000
H      8.105444    -2.453734     0.000000
H     -5.104196     1.269167     0.000000
H     -7.236095    -0.009377     0.000000
H     -5.096747    -3.752577     0.000000
H     -7.232516    -2.479940     0.000000
H     -2.767924     2.001446     0.000000
