40
Fukui flat z=0 from /home/prokop/SIMULATIONS/Fukui_AFM/pyscf_fukui_cluster/PTCDA_PBE_def2-SVP/rho_N.cube
C      2.86094   -0.00079   -0.01247
C     -3.56092   -1.20558   -0.04659
C      1.42646   -0.00385    0.03015
C     -2.85732    0.00101   -0.01815
C      0.71522   -1.23499    0.04126
C     -0.72094   -1.23499    0.03973
C     -1.42615   -0.00267    0.02769
C      3.55440    1.21828   -0.04161
C      0.71509    1.22644    0.04082
C     -5.03575   -1.20904   -0.14909
C     -0.71785    1.22760    0.03983
C     -5.02732    1.22425   -0.14925
C     -2.89053   -2.41555   -0.00688
C      3.56372   -1.21523   -0.03470
C      1.48569   -2.42402    0.03549
C      2.87072    2.42670   -0.00304
C      5.03092    1.22328   -0.14437
C     -1.49926   -2.42246    0.03192
C      5.04705   -1.22450   -0.12789
C      1.47848    2.41934    0.03387
C     -3.55596    1.21169   -0.04461
C      2.87841   -2.42200    0.00329
C     -1.48813    2.41837    0.03191
C     -2.87992    2.41972   -0.00456
N     -5.63851    0.00964   -0.27595
N      5.64307    0.00143   -0.26114
O     -5.67160    2.26251   -0.11461
O     -5.68820   -2.24348   -0.11821
O      5.70563   -2.25663   -0.08974
O      5.69149    2.25132   -0.12059
H      1.02360   -3.40719    0.04053
H     -3.43624   -3.35546   -0.02344
H     -1.02883   -3.40252    0.04004
H      0.99802    3.39468    0.04046
H      3.38790    3.38394   -0.01837
H      3.39266   -3.38123   -0.00858
H     -1.01895    3.39760    0.03774
H     -3.41207    3.36864   -0.01984
H     -6.64534    0.01271   -0.33848
H      6.65186    0.01249   -0.32177
