24
pyiso relaxed (gpu_relax, f_tol=1e-3)
C      1.368176    -0.023170    -0.011905
C      0.666014    -1.247142    -0.004606
C     -0.721350    -1.199302     0.004478
C     -1.364695     0.045402     0.003917
C     -0.585966     1.204002    -0.003315
N      0.758552     1.177116    -0.009228
O      2.726102    -0.029102    -0.020907
H      1.205247    -2.201302    -0.005430
H     -1.310086    -2.126900     0.011857
H     -2.459519     0.107584     0.009791
H     -1.072160     2.198067    -0.003975
C      3.444634     3.828893    -0.098032
C      4.124598     5.056714    -0.241654
C      5.508521     5.025572    -0.339263
C      6.169149     3.790910    -0.287645
C      5.411099     2.627017    -0.144424
N      4.068625     2.636070    -0.052746
O      2.091253     3.829920    -0.000232
H      3.566859     5.999531    -0.277478
H      6.079361     5.957057    -0.456478
H      7.262326     3.741220    -0.360631
H      5.915114     1.642728    -0.103322
H      1.755466     2.894403     0.066385
H      3.070773     0.906814    -0.026960
