24
pylac relaxed (gpu_relax, f_tol=1e-3)
C      1.368076    -0.266325     0.000537
C      0.526853    -1.443727     0.002625
C     -0.837458    -1.317314     0.004975
C     -1.444097    -0.031367     0.003322
C     -0.632188     1.083370    -0.003281
N      0.716177     0.961423    -0.005480
O      2.625948    -0.293314     0.004317
H      6.470358     5.084308    -0.466851
H      1.006123    -2.429034     0.003461
H      3.991277     5.294231    -0.294249
H     -2.533682     0.074447     0.006518
C      3.649777     3.137041    -0.111463
C      4.478830     4.313672    -0.257326
C      5.840139     4.191515    -0.351790
C      6.454721     2.910256    -0.302546
C      5.654049     1.795972    -0.164635
N      4.307772     1.912890    -0.074504
O      2.395420     3.164407    -0.020324
H      7.542332     2.808142    -0.375031
H      6.068221     0.777440    -0.121829
H      3.705371     1.044369     0.004387
H     -1.477399    -2.210720     0.008052
H     -1.038152     2.106103    -0.006740
H      1.324937     1.828917    -0.009246
