24
pyridone_dimer from /home/prokop/git/dftbplus/data/mol/pyridone_dimer.mol2
C      1.213700    -0.374300    -0.030000
C      0.413600    -1.521100    -0.008900
C     -0.975500    -1.384900     0.010500
C     -1.549100    -0.112100     0.008800
C     -0.723000     1.013500    -0.012800
N      0.629300     0.869100    -0.031800
O      2.427600    -0.478900    -0.046800
H      6.575700     5.144300    -0.525400
H      0.861300    -2.506200    -0.007500
H      4.117500     5.362100    -0.299000
H     -2.623900     0.004300     0.024000
C      3.804900     3.237100    -0.071700
C      4.581400     4.385200    -0.255100
C      5.965600     4.261800    -0.382700
C      6.559000     2.999200    -0.327500
C      5.755700     1.871200    -0.144800
N      4.407600     2.003100    -0.021600
O      2.596000     3.331000     0.044200
H      7.630400     2.892900    -0.426800
H      6.207700     0.889300    -0.100800
H      3.825600     1.147100     0.114500
H     -1.605200    -2.265200     0.026800
H     -1.159800     2.003600    -0.014500
H      1.227300     1.724600    -0.048200
