24
pyridone_isodimer from /home/prokop/git/dftbplus/data/mol/pyridone_isodimer.mol2
C      1.387000     0.012800    -0.015600
C      0.682200    -1.195500    -0.005500
C     -0.715000    -1.170100     0.005300
C     -1.387400     0.053700     0.004600
C     -0.648500     1.239000    -0.007900
N      0.710000     1.193400    -0.017200
O      2.733700     0.007900    -0.024300
H      1.208500    -2.141500    -0.006100
H     -1.276000    -2.095600     0.013800
H     -2.468600     0.085200     0.013000
H     -1.153000     2.195500    -0.010300
C      3.425600     3.785000    -0.095100
C      4.102200     5.000400    -0.241900
C      5.495100     4.999600    -0.338700
C      6.194600     3.792500    -0.289300
C      5.484000     2.597100    -0.144300
N      4.127100     2.619300    -0.050500
O      2.082400     3.776200    -0.000200
H      3.553800     5.932300    -0.280800
H      6.030500     5.933600    -0.452400
H      7.274200     3.781800    -0.363400
H      6.012300     1.654100    -0.107300
H      1.588700     2.950400     0.096700
H      3.234700     0.835000    -0.034400
