34
qx-hq chain cell, Ly=11.480
N      8.199138    10.980000     6.980283
C     10.428213    10.980000     8.019717
C      7.084600     8.850000     6.460565
C      7.084600    10.270000     6.460565
C      9.313675     8.850000     7.500000
C      9.313675    10.270000     7.500000
C     11.542750     8.850000     8.539435
C     11.542750    10.270000     8.539435
N      8.199138     8.140000     6.980283
C     10.428213     8.140000     8.019717
C      5.970063     5.240000     8.019717
N      8.199138     5.240000     6.980283
C      4.855525     3.110000     8.539435
C      4.855525     4.530000     8.539435
C      7.084600     3.110000     7.500000
C      7.084600     4.530000     7.500000
C      9.313675     3.110000     6.460565
C      9.313675     4.530000     6.460565
C      5.970063     2.400000     8.019717
N      8.199138     2.400000     6.980283
H     10.428213     0.590000     8.019717
H      6.229075     8.305000     6.061627
H      6.229075    10.815000     6.061627
H     12.398276     8.305000     8.938373
H     12.398276    10.815000     8.938373
H     10.428213     7.050000     8.019717
H      5.970063     6.330000     8.019717
H      8.199138     6.250000     6.980283
H      4.000000     2.565000     8.938373
H      4.000000     5.075000     8.938373
H     10.169201     2.565000     6.061627
H     10.169201     5.075000     6.061627
H      5.970063     1.310000     8.019717
H      8.199138     1.390000     6.980283
