18
opt method=dftb {'method': 'dftb', 'planar': True, 'orient_pca': True, 'energy': -794.767308300141, 'energy_unit': 'eV', 'nsteps': None, 'fmax': None, 'zspan_before': 1.8501790948000002e-11, 'zspan': 0.0, 'span_xy': (8.937993708, 4.300090805019787)}
C -1.4080171470 -0.1290008932 0.0000000000
C -0.6953804720 -1.3407016810 0.0000000000
C 0.6953804720 -1.3407016820 0.0000000000
C 1.4080171470 -0.1290008932 0.0000000000
C 0.6961222801 1.0829963840 0.0000000000
C -0.6961222801 1.0829963840 0.0000000000
H -1.2518301810 -2.2756736190 0.0000000000
H 1.2518301810 -2.2756736190 0.0000000000
H 1.2413795500 2.0244171860 0.0000000000
H -1.2413795500 2.0244171860 0.0000000000
C -2.9010051660 -0.1607856129 0.0000000000
O -3.5719807790 -1.1888257140 0.0000000000
O -3.5062063590 1.0603563560 0.0000000000
H -4.4689968540 0.9272165943 0.0000000000
C 2.9010051660 -0.1607856129 0.0000000000
O 3.5719807790 -1.1888257140 0.0000000000
O 3.5062063590 1.0603563560 0.0000000000
H 4.4689968540 0.9272165943 0.0000000000
