Geometry = GenFormat {
  2  C
  N
  1  1  0.0000000000E+00  0.0000000000E+00  0.0000000000E+00
  2  1  1.1000000000E+00  0.0000000000E+00  0.0000000000E+00
}

Hamiltonian = DFTB {
  SCC = No
  MaxAngularMomentum = {
    N = "p"
  }
  SlaterKosterFiles = Type2Filenames {
    Prefix = "/home/prokophapala/git_SW/dftbplus/external/slakos/origin/mio-1-1/"
    Separator = "-"
    Suffix = ".skf"
  }
  Filling = Fermi {
    Temperature [Kelvin] = 0.0
  }
}

Options {
  WriteHS = Yes
}

ParserOptions {
  ParserVersion = 13
}
