Geometry = GenFormat {
2  C
H
1  1  0.0000000000E+00  0.0000000000E+00  0.0000000000E+00
2  1  7.4000000000E-01  0.0000000000E+00  0.0000000000E+00
}
Hamiltonian = DFTB {
  SCC = Yes
  SCCTolerance = 1.0E-010
  MaxSCCIterations = 1
  Charge = 0.0
  InitialCharges = {
    AtomCharge = {
      Atoms = {
1
      }
      ChargePerAtom = -0.1
    }
    AtomCharge = {
      Atoms = {
2
      }
      ChargePerAtom = 0.1
    }
  }
  MaxAngularMomentum = {
    H = "s"
  }
  SlaterKosterFiles = Type2Filenames {
    Prefix = "/home/prokophapala/git_SW/dftbplus/external/slakos/origin/mio-1-1/"
    Separator = "-"
    Suffix = ".skf"
    LowerCaseTypeName = No
  }
  Filling = Fermi {
    Temperature [Kelvin] = 0.0
  }
  PolynomialRepulsive = {}
  Hybrid = None {}
  ShellResolvedSCC = No
  OldSKInterpolation = No
  ReadInitialCharges = No
  ConvergentSCCOnly = Yes
  RecomputeAfterDensity = Yes
  HCorrection = None {}
  SpinPolarisation = {}
  ElectricField = {}
  Solver = RelativelyRobust {}
  OnSiteCorrection = {}
  Dispersion = {}
  Solvation = {}
  ElectronicConstraints = {}
  Electrostatics = GammaFunctional {}
  Mdftb = None {}
  ThirdOrder = No
  ThirdOrderFull = No
  Differentiation = FiniteDiff {
    Delta = 1.2207031250000000E-004
  }
  ForceEvaluation = "Traditional"
  Mixer = Broyden {
    MixingParameter = 0.20000000000000001
    InverseJacobiWeight = 1.0000000000000000E-002
    MinimalWeight = 1.0000000000000000
    MaximalWeight = 100000.00000000000
    WeightFactor = 1.0000000000000000E-002
  }
}
Options = {
  WriteHS = Yes
  WriteDetailedOut = Yes
  WriteAutotestTag = No
  WriteDetailedXML = No
  WriteResultsTag = No
  RestartFrequency = 20
  RandomSeed = 0
  WriteRealHS = No
  MinimiseMemoryUsage = No
  ShowFoldedCoords = No
  TimingVerbosity = 1
  WriteCharges = Yes
  WriteChargesAsText = No
  BinaryAccessTypes = {
 "stream"
  }
}
ParserOptions = {
  ParserVersion = 15
  WriteHSDInput = Yes
  StopAfterParsing = No
  IgnoreUnprocessedNodes = No
}
Reks = None {}
Driver = {}
Analysis = {
  ProjectStates = {}
  WriteEigenvectors = No
  WriteBandOut = Yes
  MullikenAnalysis = Yes
  WriteNetCharges = No
  AtomResolvedEnergies = No
  PrintForces = No
}
ExcitedState = {}
