Geometry = GenFormat {
  2  C
  H
  1  1  0.0000000000E+00  0.0000000000E+00  0.0000000000E+00
  2  1  7.4000000000E-01  0.0000000000E+00  0.0000000000E+00
}

Hamiltonian = DFTB {
  SCC = Yes
  SCCTolerance = 1.0E-010
  MaxSCCIterations = 1
  Charge = 0.0
  InitialCharges = {
    AtomCharge = {
      Atoms = { 1 }
      ChargePerAtom = -0.1
    }
    AtomCharge = {
      Atoms = { 2 }
      ChargePerAtom = 0.1
    }
  }
  MaxAngularMomentum = {
    H = "s"
  }
  SlaterKosterFiles = Type2Filenames {
    Prefix = "/home/prokophapala/git_SW/dftbplus/external/slakos/origin/mio-1-1/"
    Separator = "-"
    Suffix = ".skf"
  }
  Filling = Fermi {
    Temperature [Kelvin] = 0.0
  }
}

Options {
  WriteHS = Yes
  WriteDetailedOut = Yes
}

ParserOptions {
  ParserVersion = 13
}
