Geometry = GenFormat {
5  C
H C O
1  1  0.0000000000E+00  0.0000000000E+00  0.0000000000E+00
2  2  1.0000000000E+00  0.0000000000E+00  0.0000000000E+00
3  3  2.2000000000E+00  0.0000000000E+00  0.0000000000E+00
4  3  1.5000000000E+00  1.0000000000E+00  0.0000000000E+00
5  1  2.2000000000E+00  1.0000000000E+00  0.0000000000E+00
}
Hamiltonian = DFTB {
  SCC = No
  MaxAngularMomentum = {
    H = "s"
    C = "p"
    O = "p"
  }
  SlaterKosterFiles = Type2Filenames {
    Prefix = "/home/prokophapala/git_SW/dftbplus/external/slakos/origin/mio-1-1/"
    Separator = "-"
    Suffix = ".skf"
    LowerCaseTypeName = No
  }
  Filling = Fermi {
    Temperature [Kelvin] = 0.0
  }
  PolynomialRepulsive = {}
  Hybrid = None {}
  OldSKInterpolation = No
  SpinPolarisation = {}
  ElectricField = {}
  Solver = RelativelyRobust {}
  Charge = 0.0000000000000000
  Dispersion = {}
  Solvation = {}
  ElectronicConstraints = {}
  Differentiation = FiniteDiff {
    Delta = 1.2207031250000000E-004
  }
}
Options = {
  WriteHS = Yes
  WriteDetailedOut = Yes
  WriteAutotestTag = No
  WriteDetailedXML = No
  WriteResultsTag = No
  RandomSeed = 0
  WriteRealHS = No
  MinimiseMemoryUsage = No
  ShowFoldedCoords = No
  TimingVerbosity = 1
  WriteCharges = Yes
  WriteChargesAsText = No
  BinaryAccessTypes = {
 "stream"
  }
}
ParserOptions = {
  ParserVersion = 15
  WriteHSDInput = Yes
  StopAfterParsing = No
  IgnoreUnprocessedNodes = No
}
Reks = None {}
Driver = {}
Analysis = {
  ProjectStates = {}
  WriteEigenvectors = No
  WriteBandOut = Yes
  MullikenAnalysis = Yes
  WriteNetCharges = No
  AtomResolvedEnergies = No
  PrintForces = No
}
ExcitedState = {}
