27
lvs 20.0 0.0 0.0 0.0 20.0 0.0 0.0 0.0 20.0
N     -4.85304    0.11594    0.01184
C     -3.51690   -0.15137    0.01136
C     -2.90611    1.08858   -0.01266
N     -3.82532    2.10534   -0.02688
C     -4.98916    1.48220   -0.01137
C     -1.45500    1.14895   -0.01841
N     -0.93585   -0.11729    0.00025
C     -1.65114   -1.29179    0.02349
N     -2.95268   -1.38798    0.03096
H     -5.59203   -0.57138    0.02697
N     -0.79173    2.25897   -0.03739
H     -1.01376   -2.19188    0.03635
H     -5.96232    1.95591   -0.01554
H     -1.49656    3.02023   -0.04856
H      0.07824   -0.18644   -0.00406
C      3.91904   -1.47548    0.01212
C      4.59405   -0.32182    0.02780
N      3.91106    0.85679    0.03418
C      2.56237    0.85393    0.01829
N      1.79767   -0.18083    0.00254
C      2.42796   -1.41769    0.00270
O      2.02808    2.08054    0.01971
H      4.38287   -2.45122    0.00566
O      1.79616   -2.46843   -0.00526
H      5.67752   -0.26412    0.03421
H      0.92452    2.20321    0.01987
H      4.39825    1.74287    0.04507
