27
XYZ file generated by Avogadro.
N     -4.92900    0.03990    0.01920
C     -3.57090   -0.19250    0.01350
C     -2.99920    1.08580   -0.01760
N     -3.96760    2.07690   -0.03080
C     -5.10010    1.41150   -0.00790
C     -1.58370    1.13890   -0.02600
N     -0.91340   -0.03690   -0.00600
C     -1.60480   -1.19530    0.02240
N     -2.92800   -1.37220    0.03440
H      0.13090    2.28740   -0.04740
N     -0.89350    2.29220   -0.05280
H     -5.65020   -0.67030    0.04170
H     -6.09210    1.85960   -0.00870
H     -1.40870    3.16160   -0.06270
H     -0.98080   -2.09550    0.03710
C      3.94540   -1.53660    0.01740
C      4.61780   -0.36170    0.01590
N      3.96790    0.85700    0.00550
C      2.58600    0.98350   -0.00530
N      1.91180   -0.21050   -0.00370
C      2.47370   -1.49360    0.00820
O      2.04290    2.08700   -0.01600
H      4.46850   -2.46990    0.02510
O      1.76020   -2.48790    0.01070
H      5.70820   -0.30960    0.02280
H      4.48240    1.72920    0.00330
H      0.85980   -0.15150   -0.00820
